 vasp.6.1.2 22Jul20 (build Jul 11 2022 11:43:44) complex

 executed on             LinuxIFC date 2022.08.17  15:33:38

 INCAR:
 POTCAR:    PAW_PBE Pt_pv 12Dec2005
 POTCAR:    PAW_PBE Pt_pv 12Dec2005
 POTCAR:    PAW_PBE Pt 04Feb2005
|           W    W    AA    RRRRR   N    N  II  N    N   GGGG   !!!           |
|           W    W   A  A   R    R  NN   N  II  NN   N  G    G  !!!           |
|           W    W  A    A  R    R  N N  N  II  N N  N  G       !!!           |
|           W WW W  AAAAAA  RRRRR   N  N N  II  N  N N  G  GGG   !            |
|           WW  WW  A    A  R   R   N   NN  II  N   NN  G    G                |
|           W    W  A    A  R    R  N    N  II  N    N   GGGG   !!!           |
|     For optimal performance we recommend to set                             |
|       NCORE = 4 - approx SQRT(number of cores).                             |
|     This setting can greatly improve the performance of VASP for DFT.       |
|     The default, NCORE=1 might be grossly inefficient on modern             |
|     multi-core architectures or massively parallel machines. Do your        |
|     own testing!!!!                                                         |
|     Unfortunately you need to use the default for GW and RPA                |
|     calculations (for HF NCORE is supported but not extensively tested      |
|     yet).                                                                   |

 POTCAR:    PAW_PBE Pt_pv 12Dec2005
   VRHFIN =Pt: 5ps1d9

   TITEL  = PAW_PBE Pt_pv 12Dec2005
   POMASS =  195.080; ZVAL   =   16.000    mass and valenz
   ENMAX  =  294.607; ENMIN  =  220.955 eV

 POTCAR:    PAW_PBE Pt_pv 12Dec2005
   VRHFIN =Pt: 5ps1d9

   TITEL  = PAW_PBE Pt_pv 12Dec2005
   POMASS =  195.080; ZVAL   =   16.000    mass and valenz
   ENMAX  =  294.607; ENMIN  =  220.955 eV

 POTCAR:    PAW_PBE Pt 04Feb2005
   VRHFIN =Pt: s1d9

   TITEL  = PAW_PBE Pt 04Feb2005
   POMASS =  195.080; ZVAL   =   10.000    mass and valenz
   ENMAX  =  230.283; ENMIN  =  172.712 eV

  PAW_PBE Pt_pv 12Dec2005               :
  PAW_PBE Pt_pv 12Dec2005               :
  PAW_PBE Pt 04Feb2005                  :

 POSCAR: Pt Pt Pt
  positions in cartesian coordinates
 exchange correlation table for  LEXCH =        8
   RHO(1)=    0.500       N(1)  =     2000
   RHO(2)=  100.500       N(2)  =     4000

 ion  position               nearest neighbor table
   1  0.000  0.000  0.000-   2 2.47   3 2.47   4 2.47   3 2.47   4 2.47   2 2.47   3 2.47   3 2.47
                             2 2.47   4 2.47   4 2.47   2 2.47
   2  0.500  0.500  0.000-   1 2.47   3 2.47   4 2.47   3 2.47   4 2.47   1 2.47   4 2.47   4 2.47
                             1 2.47   3 2.47   3 2.47   1 2.47
   3  0.000  0.500  0.500-   1 2.47   2 2.47   4 2.47   1 2.47   2 2.47   1 2.47   4 2.47   1 2.47
                             2 2.47   4 2.47   2 2.47   4 2.47
   4  0.500  0.000  0.500-   1 2.47   2 2.47   3 2.47   1 2.47   2 2.47   2 2.47   3 2.47   2 2.47
                             1 2.47   3 2.47   1 2.47   3 2.47

  LATTYP: Found a simple cubic cell.
 ALAT       =     3.5000000000

  Lattice vectors:

 A1 = (   3.5000000000,   0.0000000000,   0.0000000000)
 A2 = (   0.0000000000,   3.5000000000,   0.0000000000)
 A3 = (   0.0000000000,   0.0000000000,   3.5000000000)

Analysis of symmetry for initial positions (statically):
 Subroutine PRICEL returns:
 Original cell was already a primitive cell.

 Routine SETGRP: Setting up the symmetry group for a
 simple cubic supercell.

 Subroutine GETGRP returns: Found 16 space group operations
 (whereof 16 operations were pure point group operations)
 out of a pool of 48 trial point group operations.

The static configuration has the point symmetry D_4h.

Analysis of symmetry for dynamics (positions and initial velocities):
 Subroutine PRICEL returns:
 Original cell was already a primitive cell.

 Routine SETGRP: Setting up the symmetry group for a
 simple cubic supercell.

 Subroutine GETGRP returns: Found 16 space group operations
 (whereof 16 operations were pure point group operations)
 out of a pool of 48 trial point group operations.

The dynamic configuration has the point symmetry D_4h.

 Subroutine INISYM returns: Found 16 space group operations
 (whereof 16 operations are pure point group operations),
 and found     1 'primitive' translations

                                     Primitive cell

  volume of cell :      42.8750

  direct lattice vectors                    reciprocal lattice vectors
     3.500000000  0.000000000  0.000000000     0.285714286  0.000000000  0.000000000
     0.000000000  3.500000000  0.000000000     0.000000000  0.285714286  0.000000000
     0.000000000  0.000000000  3.500000000     0.000000000  0.000000000  0.285714286

  length of vectors
     3.500000000  3.500000000  3.500000000     0.285714286  0.285714286  0.285714286

  position of ions in fractional coordinates (direct lattice)
     0.000000000  0.000000000  0.000000000
     0.500000000  0.500000000  0.000000000
     0.000000000  0.500000000  0.500000000
     0.500000000  0.000000000  0.500000000

  ion indices of the primitive-cell ions
   primitive index   ion index
                 1           1
                 2           2
                 3           3
                 4           4

 KPOINTS: KPOINTS created by Atomic Simulation Env

Automatic generation of k-mesh.
Space group operators:
 irot       det(A)        alpha          n_x          n_y          n_z        tau_x        tau_y        tau_z
    1     1.000000     0.000000     1.000000     0.000000     0.000000     0.000000     0.000000     0.000000
    2    -1.000000     0.000000     1.000000     0.000000     0.000000     0.000000     0.000000     0.000000
    3     1.000000    90.000000     0.000000     0.000000    -1.000000     0.000000     0.000000     0.000000
    4    -1.000000    90.000000     0.000000     0.000000    -1.000000     0.000000     0.000000     0.000000
    5     1.000000   180.000000     0.000000     0.000000     1.000000     0.000000     0.000000     0.000000
    6    -1.000000   180.000000     0.000000     0.000000     1.000000     0.000000     0.000000     0.000000
    7     1.000000    90.000000     0.000000     0.000000     1.000000     0.000000     0.000000     0.000000
    8    -1.000000    90.000000     0.000000     0.000000     1.000000     0.000000     0.000000     0.000000
    9     1.000000   180.000000     1.000000     0.000000     0.000000     0.000000     0.000000     0.000000
   10    -1.000000   180.000000     1.000000     0.000000     0.000000     0.000000     0.000000     0.000000
   11     1.000000   180.000000     0.707107     0.707107     0.000000     0.000000     0.000000     0.000000
   12    -1.000000   180.000000     0.707107     0.707107     0.000000     0.000000     0.000000     0.000000
   13     1.000000   180.000000     0.000000     1.000000     0.000000     0.000000     0.000000     0.000000
   14    -1.000000   180.000000     0.000000     1.000000     0.000000     0.000000     0.000000     0.000000
   15     1.000000   180.000000     0.707107    -0.707107     0.000000     0.000000     0.000000     0.000000
   16    -1.000000   180.000000     0.707107    -0.707107     0.000000     0.000000     0.000000     0.000000

 Subroutine IBZKPT returns following result:

 Found      1 irreducible k-points:

 Following reciprocal coordinates:
            Coordinates               Weight
  0.000000  0.000000  0.000000      1.000000

 Following cartesian coordinates:
            Coordinates               Weight
  0.000000  0.000000  0.000000      1.000000

 SYSTEM =  unknown system
 POSCAR =  Pt Pt Pt

 Startparameter for this run:
   NWRITE =      2    write-flag & timer
   PREC   = normal    normal or accurate (medium, high low for compatibility)
   ISTART =      1    job   : 0-new  1-cont  2-samecut
   ICHARG =      0    charge: 1-file 2-atom 10-const
   ISPIN  =      1    spin polarized calculation?
   LNONCOLLINEAR =      F non collinear calculations
   LSORBIT =      F    spin-orbit coupling
   INIWAV =      1    electr: 0-lowe 1-rand  2-diag
   LASPH  =      F    aspherical Exc in radial PAW
   METAGGA=      F    non-selfconsistent MetaGGA calc.

 Electronic Relaxation 1
   ENCUT  =  294.6 eV  21.65 Ry    4.65 a.u.   4.90  4.90  4.90*2*pi/ulx,y,z
   ENINI  =  294.6     initial cutoff
   ENAUG  =  527.0 eV  augmentation charge cutoff
   NELM   =     60;   NELMIN=  2; NELMDL=  0     # of ELM steps
   EDIFF  = 0.1E-03   stopping-criterion for ELM
   LREAL  =      F    real-space projection
   NLSPLINE    = F    spline interpolate recip. space projectors
   LCOMPAT=      F    compatible to vasp.4.4
   GGA_COMPAT  = T    GGA compatible to vasp.4.4-vasp.4.6
   LMAXPAW     = -100 max onsite density
   LMAXMIX     =    2 max onsite mixed and CHGCAR
   VOSKOWN=      0    Vosko Wilk Nusair interpolation
   ROPT   =    0.00000   0.00000   0.00000
 Ionic relaxation
   EDIFFG = 0.1E-02   stopping-criterion for IOM
   NSW    =      0    number of steps for IOM
   NBLOCK =      1;   KBLOCK =      1    inner block; outer block
   IBRION =     -1    ionic relax: 0-MD 1-quasi-New 2-CG
   NFREE  =      0    steps in history (QN), initial steepest desc. (CG)
   ISIF   =      2    stress and relaxation
   IWAVPR =     10    prediction:  0-non 1-charg 2-wave 3-comb
   ISYM   =      2    0-nonsym 1-usesym 2-fastsym
   LCORR  =      T    Harris-Foulkes like correction to forces

   POTIM  = 0.5000    time-step for ionic-motion
   TEIN   =    0.0    initial temperature
   TEBEG  =    0.0;   TEEND  =   0.0 temperature during run
   SMASS  =  -3.00    Nose mass-parameter (am)
   estimated Nose-frequenzy (Omega)   =  0.10E-29 period in steps = 0.13E+47 mass=  -0.280E-27a.u.
   SCALEE = 1.0000    scale energy and forces
   NPACO  =    256;   APACO  = 16.0  distance and # of slots for P.C.
   PSTRESS=    0.0 pullay stress

  Mass of Ions in am
   POMASS = 195.08195.08195.08
  Ionic Valenz
   ZVAL   =  16.00 16.00 10.00
  Atomic Wigner-Seitz radii
  virtual crystal weights
   VCA    =   1.00  1.00  1.00
   NELECT =      52.0000    total number of electrons
   NUPDOWN=      -1.0000    fix difference up-down

 DOS related values:
   EMIN   =  10.00;   EMAX   =-10.00  energy-range for DOS
   EFERMI =   0.00
   ISMEAR =     1;   SIGMA  =   0.20  broadening in eV -4-tet -1-fermi 0-gaus

 Electronic relaxation 2 (details)
   IALGO  =     38    algorithm
   LDIAG  =      T    sub-space diagonalisation (order eigenvalues)
   LSUBROT=      F    optimize rotation matrix (better conditioning)
   TURBO    =      0    0=normal 1=particle mesh
   IRESTART =      0    0=no restart 2=restart with 2 vectors
   NREBOOT  =      0    no. of reboots
   NMIN     =      0    reboot dimension
   EREF     =   0.00    reference energy to select bands
   IMIX   =      4    mixing-type and parameters
     AMIX     =   0.40;   BMIX     =  1.00
     AMIX_MAG =   1.60;   BMIX_MAG =  1.00
     AMIN     =   0.10
     WC   =   100.;   INIMIX=   1;  MIXPRE=   1;  MAXMIX= -45

 Intra band minimization:
   WEIMIN = 0.0000     energy-eigenvalue tresh-hold
   EBREAK =  0.78E-06  absolut break condition
   DEPER  =   0.30     relativ break condition

   TIME   =   0.40     timestep for ELM

  volume/ion in A,a.u.               =      10.72        72.33
  Fermi-wavevector in a.u.,A,eV,Ry     =   1.745854  3.299186 41.470638  3.048006
  Thomas-Fermi vector in A             =   2.817461

 Write flags
   LWAVE        =      T    write WAVECAR
   LDOWNSAMPLE  =      F    k-point downsampling of WAVECAR
   LCHARG       =      T    write CHGCAR
   LVTOT        =      F    write LOCPOT, total local potential
   LVHAR        =      F    write LOCPOT, Hartree potential only
   LELF         =      F    write electronic localiz. function (ELF)
   LORBIT       =      0    0 simple, 1 ext, 2 COOP (PROOUT), +10 PAW based schemes

 Dipole corrections
   LMONO  =      F    monopole corrections only (constant potential shift)
   LDIPOL =      F    correct potential (dipole corrections)
   IDIPOL =      0    1-x, 2-y, 3-z, 4-all directions
   EPSILON=  1.0000000 bulk dielectric constant

 Exchange correlation treatment:
   GGA     =    PE    GGA type
   VOSKOWN=      0    Vosko Wilk Nusair interpolation
   LHFCALC =     F    Hartree Fock is set to
   LHFONE  =     F    Hartree Fock one center treatment
   AEXX    =    0.0000 exact exchange contribution

 Linear response parameters
   LEPSILON=     F    determine dielectric tensor
   LRPA    =     F    only Hartree local field effects (RPA)
   LNABLA  =     F    use nabla operator in PAW spheres
   LVEL    =     F    velocity operator in full k-point grid
   LINTERFAST=   F  fast interpolation
   KINTER  =     0    interpolate to denser k-point grid
   CSHIFT  =0.1000    complex shift for real part using Kramers Kronig
   OMEGAMAX=  -1.0    maximum frequency
   DEG_THRESHOLD= 0.2000000E-02 threshold for treating states as degnerate
   RTIME   =   -0.100 relaxation time in fs
  (WPLASMAI=    0.000 imaginary part of plasma frequency in eV, 0.658/RTIME)
   DFIELD  = 0.0000000 0.0000000 0.0000000 field for delta impulse in time

 Orbital magnetization related:
   ORBITALMAG=     F  switch on orbital magnetization
   LCHIMAG   =     F  perturbation theory with respect to B field
   DQ        =  0.001000  dq finite difference perturbation B field
   LLRAUG    =     F  two centre corrections for induced B field

 Static calculation
 charge density and potential will be updated during run
 non-spin polarized calculation
 Variant of blocked Davidson
 Davidson routine will perform the subspace rotation
 perform sub-space diagonalisation
    after iterative eigenvector-optimisation
 modified Broyden-mixing scheme, WC =      100.0
 initial mixing is a Kerker type mixing with AMIX =  0.4000 and BMIX =      1.0000
 Hartree-type preconditioning will be used
 using additional bands            6
 reciprocal scheme for non local part
 use partial core corrections
 calculate Harris-corrections to forces
   (improved forces if not selfconsistent)
 use gradient corrections
 use of overlap-Matrix (Vanderbilt PP)
 Methfessel and Paxton  Order N= 1 SIGMA  =   0.20

  energy-cutoff  :      294.61
  volume of cell :       42.88
      direct lattice vectors                 reciprocal lattice vectors
     3.500000000  0.000000000  0.000000000     0.285714286  0.000000000  0.000000000
     0.000000000  3.500000000  0.000000000     0.000000000  0.285714286  0.000000000
     0.000000000  0.000000000  3.500000000     0.000000000  0.000000000  0.285714286

[...]

 old parameters found on file WAVECAR:
  energy-cutoff  :      294.61
  volume of cell :       42.88
      direct lattice vectors                 reciprocal lattice vectors
     3.500000000  0.000000000  0.000000000     0.285714286  0.000000000  0.000000000
     0.000000000  3.500000000  0.000000000     0.000000000  0.285714286  0.000000000
     0.000000000  0.000000000  3.500000000     0.000000000  0.000000000  0.285714286

  length of vectors

 k-points in units of 2pi/SCALE and weight: KPOINTS created by Atomic Simulation Env
   0.00000000  0.00000000  0.00000000       1.000

 k-points in reciprocal lattice and weights: KPOINTS created by Atomic Simulation Env
   0.00000000  0.00000000  0.00000000       1.000

 position of ions in fractional coordinates (direct lattice)
   0.00000000  0.00000000  0.00000000
   0.50000000  0.50000000  0.00000000
   0.00000000  0.50000000  0.50000000
   0.50000000  0.00000000  0.50000000

 position of ions in cartesian coordinates  (Angst):
   0.00000000  0.00000000  0.00000000
   1.75000000  1.75000000  0.00000000
   0.00000000  1.75000000  1.75000000
   1.75000000  0.00000000  1.75000000

 k-point   1 :   0.0000 0.0000 0.0000  plane waves:     461

 maximum and minimum number of plane-waves per node :       461      461

 maximum number of plane-waves:       461
 maximum index in each direction:
   IXMAX=    4   IYMAX=    4   IZMAX=    4
   IXMIN=   -4   IYMIN=   -4   IZMIN=   -4

 serial   3D FFT for wavefunctions
 parallel 3D FFT for charge:
    minimum data exchange during FFTs selected (reduces bandwidth)

 Broyden mixing: mesh for mixing (old mesh)
   NGX =  9   NGY =  9   NGZ =  9
  (NGX  = 32   NGY  = 32   NGZ  = 32)
  gives a total of    729 points

 charge density for first step will be calculated from the start-wavefunctions

 Maximum index for augmentation-charges          377 (set IRDMAX)

 initial charge from wavefunction
 First call to EWALD:  gamma=   0.506
 Maximum number of real-space cells 3x 3x 3
 Maximum number of reciprocal cells 3x 3x 3

--------------------------------------- Iteration      1(   1)  ---------------------------------------

 eigenvalue-minimisations  :   112
 total energy-change (2. order) :-0.2083462E+04  (-0.2897716E+04)
 number of electron      52.0000234 magnetization
 augmentation part       15.0374016 magnetization

 Broyden mixing:
  rms(total) = 0.11121E+03    rms(broyden)= 0.11120E+03
  rms(prec ) = 0.12524E+03
  weight for this iteration     100.00

 Free energy of the ion-electron system (eV)
  alpha Z        PSCENC =       594.32374129
  Ewald energy   TEWEN  =     -6542.72582504
  -Hartree energ DENC   =      -344.44925069
  -exchange      EXHF   =         0.00000000
  -V(xc)+E(xc)   XCENC  =        94.98500930
  PAW double counting   =     81873.42447388   -81825.31968488
  entropy T*S    EENTRO =         0.02255638
  eigenvalues    EBANDS =     -2248.05294284
  atomic energy  EATOM  =      6314.32970236
  Solvation  Ediel_sol  =         0.00000000
  free energy    TOTEN  =     -2083.46222023 eV

  energy without entropy =    -2083.48477661  energy(sigma->0) =    -2083.46973902

[...]

 eigenvalue-minimisations  :    96
 total energy-change (2. order) : 0.2041164E+04  (-0.4845102E+03)
 number of electron      52.0000202 magnetization
 augmentation part       14.0926086 magnetization

[...]

 eigenvalues of (default mixing * dielectric matrix)
  average eigenvalue GAMMA=   0.7416
  0.7416

[...]

 eigenvalue-minimisations  :    80
 total energy-change (2. order) : 0.4265540E+00  (-0.2615917E-02)
 number of electron      52.0000187 magnetization
 augmentation part       15.2295294 magnetization

 Broyden mixing:
  rms(total) = 0.37587E+01    rms(broyden)= 0.37586E+01
  rms(prec ) = 0.56433E+01
  weight for this iteration     100.00

 eigenvalues of (default mixing * dielectric matrix)
  average eigenvalue GAMMA=   1.2577
  3.8067  3.8067  2.6359  3.0035  3.0035  1.9188  1.9188  2.5155  2.5155  2.5042
  2.2357  2.2357  1.4005  1.4005  2.0699  1.5905  1.1749  1.1749  1.2764  1.2764
  1.3245  0.1168  0.1953  0.1953  0.6848  0.6848  0.5634  0.5634  0.8330  0.8330
  0.8535  0.0224  0.0177  0.0523  0.1627  0.1627  0.2050  0.5488  0.5488  0.4264
  0.5768  0.5450  0.5014

[...]

--------------------------------------- Iteration      1(  60)  ---------------------------------------

 eigenvalue-minimisations  :    96
 total energy-change (2. order) :-0.4561982E-01  (-0.1478028E-02)
 number of electron      52.0000187 magnetization
 augmentation part       15.2295294 magnetization

 Free energy of the ion-electron system (eV)
  alpha Z        PSCENC =       594.32374129
  Ewald energy   TEWEN  =     -6542.72582504
  -Hartree energ DENC   =      -771.41021082
  -exchange      EXHF   =         0.00000000
  -V(xc)+E(xc)   XCENC  =       142.30093303
  PAW double counting   =     14536.12731338   -14432.21128593
  entropy T*S    EENTRO =        -0.23928929
  eigenvalues    EBANDS =       181.20328780
  atomic energy  EATOM  =      6314.32970236
  Solvation  Ediel_sol  =         0.00000000
  free energy    TOTEN  =        21.69836680 eV

  energy without entropy =       21.93765608  energy(sigma->0) =       21.77812989

 average (electrostatic) potential at core
  the test charge radii are     0.9952  0.9952  1.2059
  (the norm of the test charge is              1.0000)
       1 -83.2469       2 -80.1739       3 -55.0417       4 -55.0417

 E-fermi :  21.1806     XC(G=0): -15.8837     alpha+bet :-23.9247

 k-point     1 :       0.0000    0.0000    0.0000
  band No.  band energies     occupation
      1     -35.6957      2.00000
      2     -35.5229      2.00000
      3     -35.5229      2.00000
      4     -32.9577      2.00000
      5     -32.9577      2.00000
      6     -32.4846      2.00000
      7       5.1045      2.00000
      8       7.5475      2.00000
      9       7.9268      2.00000
     10       8.4608      2.00000
     11       8.6117      2.00000
     12       8.6721      2.00000
     13       8.6721      2.00000
     14      13.3511      2.00000
     15      13.5941      2.00000
     16      13.5941      2.00000
     17      17.1409      2.00000
     18      17.1524      2.00000
     19      20.1655      2.00000
     20      20.5305      2.00004
     21      20.5644      2.00012
     22      20.6099      2.00041
     23      20.6099      2.00041
     24      21.0993      1.62927
     25      21.1389      1.34484
     26      21.1389      1.34484
     27      21.1918      0.90605
     28      21.2076      0.77401
     29      21.9049     -0.00000
     30      21.9049     -0.00000
     31      32.0935      0.00000
     32      32.0940      0.00000

 soft charge-density along one line, spin component           1
         0         1         2         3         4         5         6         7         8         9
 total charge-density along one line

------------------------ aborting loop EDIFF was not reached (unconverged)  ----------------------------

  FORCE on cell =-STRESS in cart. coord.  units (eV):
  Direction    XX          YY          ZZ          XY          YZ          ZX
  Alpha Z   594.32374   594.32374   594.32374
  Ewald   -2111.28273 -2111.28273 -2320.16312    -0.00000    -0.00000     0.00000
  Hartree   347.79441   347.79441   156.03318    -0.00000    -0.00000    -0.00000
  E(xc)    -270.90561  -270.90561  -270.70789    -0.00000    -0.00000    -0.00000
  Local     267.95711   267.95711   714.38135    -0.00000     0.00000     0.00000
  n-local    -8.89382    -8.89383   -18.70855    -0.00000    -0.00000    -0.00000
  augment   257.33570   257.33570   256.86698    -0.00000     0.00000     0.00000
  Kinetic  1069.74047  1069.74047  1039.69291    -0.00000    -0.00000    -0.00000
  Fock        0.00000     0.00000     0.00000     0.00000     0.00000     0.00000
  Total     146.06927   146.06927   151.71861     0.00000    -0.00000    -0.00000
  in kB    5458.39939  5458.39939  5669.50708     0.00000    -0.00000    -0.00000

 VOLUME and BASIS-vectors are now :
  energy-cutoff  :      294.61
  volume of cell :       42.88
      direct lattice vectors                 reciprocal lattice vectors
     3.500000000  0.000000000  0.000000000     0.285714286  0.000000000  0.000000000
     0.000000000  3.500000000  0.000000000     0.000000000  0.285714286  0.000000000
     0.000000000  0.000000000  3.500000000     0.000000000  0.000000000  0.285714286

  length of vectors
     3.500000000  3.500000000  3.500000000     0.285714286  0.285714286  0.285714286

 FORCES acting on ions
    electron-ion (+dipol)            ewald-force                    non-local-force                 convergence-correction
   0.927E-16 -.337E-15 -.490E-15   0.359E-13 -.101E-14 0.133E-14   0.000E+00 0.000E+00 0.000E+00   -.498E-12 -.309E-12 -.809E-14
   0.223E-12 0.224E-12 -.285E-11   -.124E-13 0.394E-13 0.164E-14   0.000E+00 0.000E+00 0.000E+00   0.208E-12 0.948E-13 -.177E-12
   -.513E-15 0.403E-13 0.278E-13   -.192E-13 -.164E-13 -.324E-15   0.000E+00 0.000E+00 0.000E+00   -.688E-13 0.150E-12 0.214E-13
   0.377E-13 0.130E-14 0.288E-12   0.244E-14 -.233E-13 -.160E-15   0.000E+00 0.000E+00 0.000E+00   0.135E-13 0.129E-12 -.166E-13
   0.260E-12 0.265E-12 -.254E-11   0.677E-14 -.136E-14 0.248E-14   0.000E+00 0.000E+00 0.000E+00   -.345E-12 0.652E-13 -.180E-12

 POSITION                                       TOTAL-FORCE (eV/Angst)
      0.00000      0.00000      0.00000         0.000000      0.000000      0.000000
      1.75000      1.75000      0.00000         0.000000      0.000000      0.000000
      0.00000      1.75000      1.75000         0.000000      0.000000      0.000000
      1.75000      0.00000      1.75000         0.000000      0.000000      0.000000
    total drift:                               -0.000000      0.000000     -0.000000

  FREE ENERGIE OF THE ION-ELECTRON SYSTEM (eV)
  free  energy   TOTEN  =        21.69836680 eV

  energy  without entropy=       21.93765608  energy(sigma->0) =       21.77812989

 writing wavefunctions